NAME : morphed22-2-19
COMMENT : Generated using the function morphInstances from the R-package netgen (Bossek,2015) - Number of clusters: 2 Alpha: 0.5
TYPE : TSP
DIMENSION : 22
EDGE_WEIGHT_TYPE : EUC_2D
NODE_COORD_SECTION
1 14.4475102914 88.0659468079
2 43.0902008904 89.4534471429
3 50.785738419 81.7038692306
4 12.3856214171 68.8628516839
5 50.1060609849 39.4808627395
6 27.4490783117 73.0670980646
7 30.7809874187 83.7106854504
8 61.2110274389 42.6379180449
9 80.9531298066 38.4392491025
10 69.0937502362 54.2483678098
11 53.1503954762 30.4795750378
12 41.6557978565 84.1166700117
13 64.2248245856 95.2758790853
14 65.5477341448 88.1269496043
15 26.6606087545 79.1354257634
16 82.1692754951 54.717587604
17 54.1357988063 27.3704322379
18 62.977939018 22.9373661585
19 41.0298134403 92.646043152
20 82.2831352979 29.6330144924
21 76.960920468 17.1094724609
22 88.4842613684 42.6983948908
EOF
